Optimal - objective value 33.00000000
     25 x_1_25                 1                       0
     49 x_2_29                 1                       0
     50 x_3_0                  1                       0
     77 x_4_14                 1                       0
    101 x_5_23                 1                       0
    118 x_6_18                 1                       0
    135 x_7_6                  1                       0
    154 x_8_12                 1                       0
    187 x_9_33                 1                      33
